7,5	0,0	18,8	12,6	0,0	0,0	0,0	0,0	0,0	15,6
14,1	17,0	0,0	17,7	5,3	0,0	0,0	11,0	0,0	0,0
0,0	0,0	6,0	0,0	18,8	7,6	0,0	0,0	8,4	0,0
19,4	0,0	17,8	0,0	0,0	0,0	19,0	0,0	0,0	0,0
0,0	15,3	0,0	17,8	13,2	0,0	0,0	10,6	0,0	0,0
0,0	11,1	13,4	0,0	19,5	18,6	0,0	0,0	11,3	0,0
0,0	10,4	0,0	16,7	0,0	0,0	9,2	0,0	0,0	8,6
13,5	0,0	10,0	0,0	0,0	0,0	0,0	0,0	0,0	9,6
0,0	7,6	0,0	18,7	11,0	0,0	0,0	13,0	0,0	0,0
0,0	0,0	13,1	0,0	0,0	11,9	14,1	0,0	0,0	12,7
0,0	13,5	0,0	0,0	9,2	0,0	8,3	0,0	8,1	16,4
5,2	0,0	8,3	0,0	5,3	0,0	7,0	8,8	5,2	0,0
0,0	19,0	0,0	0,0	0,0	13,6	0,0	9,3	6,1	6,3
14,5	9,8	18,4	0,0	0,0	17,6	0,0	16,9	16,2	0,0
17,9	0,0	17,8	0,0	18,1	7,7	16,3	13,6	0,0	0,0
0,0	13,7	0,0	9,9	0,0	13,9	0,0	15,4	0,0	0,0
6,2	0,0	11,0	16,1	17,1	0,0	0,0	18,5	0,0	0,0
0,0	0,0	7,3	0,0	0,0	5,2	14,7	0,0	11,7	19,6
17,8	0,0	0,0	15,6	13,6	9,8	6,5	11,6	0,0	7,7
0,0	16,3	0,0	11,3	0,0	0,0	8,6	0,0	18,3	9,2
									
3,8	3,4	4,1	5,0	3,9	3,5	2,7	3,7	3,1	4,5
